NAME 
ROWS
 N  OBJ
 L  R0      
 L  R1      
 L  R2      
 L  R3      
 E  R4      
COLUMNS
    MARKER    'MARKER'                 'INTORG'
    I0(5)     OBJ       -566
    I0(5)     R0        -62
    I0(5)     R1        -664
    I0(5)     R2        -557
    I0(5)     R3        -979
    I0(5)     R4        257
    I1(5)     OBJ       -611
    I1(5)     R0        -84
    I1(5)     R1        -982
    I1(5)     R2        -898
    I1(5)     R3        -448
    I1(5)     R4        985
    I2(5)     OBJ       -506
    I2(5)     R0        -977
    I2(5)     R1        -962
    I2(5)     R2        -148
    I2(5)     R3        -355
    I2(5)     R4        871
    I3(5)     OBJ       -180
    I3(5)     R0        -979
    I3(5)     R1        -140
    I3(5)     R2        -63
    I3(5)     R3        -955
    I3(5)     R4        219
    I4(5)     OBJ       -817
    I4(5)     R0        -874
    I4(5)     R1        -224
    I4(5)     R2        -78
    I4(5)     R3        -426
    I4(5)     R4        125
    I5(5)     OBJ       -184
    I5(5)     R0        -54
    I5(5)     R1        -215
    I5(5)     R2        -964
    I5(5)     R3        -229
    I5(5)     R4        94
    I6(5)     OBJ       -585
    I6(5)     R0        -269
    I6(5)     R1        -12
    I6(5)     R2        -246
    I6(5)     R3        -9
    I6(5)     R4        434
    I7(5)     OBJ       -423
    I7(5)     R0        -93
    I7(5)     R1        -869
    I7(5)     R2        -662
    I7(5)     R3        -695
    I7(5)     R4        137
    I8(5)     OBJ       -26
    I8(5)     R0        -881
    I8(5)     R1        -332
    I8(5)     R2        -386
    I8(5)     R3        -322
    I8(5)     R4        963
    I9(5)     OBJ       -317
    I9(5)     R0        -563
    I9(5)     R1        -537
    I9(5)     R2        -272
    I9(5)     R3        -889
    I9(5)     R4        765
    I10(1)    R4        1
    MARKER    'MARKER'                 'INTEND'
RHS
    RHS1      R0        -2415
    RHS1      R1        -3106
    RHS1      R2        -3468
    RHS1      R3        -3741
    RHS1      R4        2425
BOUNDS
 UP BND1      I0(5)     1
 UP BND1      I1(5)     1
 UP BND1      I2(5)     1
 UP BND1      I3(5)     1
 UP BND1      I4(5)     1
 UP BND1      I5(5)     1
 UP BND1      I6(5)     1
 UP BND1      I7(5)     1
 UP BND1      I8(5)     1
 UP BND1      I9(5)     1
 LI BND1      I10(1)    0
ENDATA
